c PyNETGEN v1.0.0
c $ pip install pynetgen
c
c  NETGEN flow network generation algorithm
c  Problem input parameters
c  -------------------------------------
c   Random seed:          70
c   Number of nodes:      16
c   Source nodes:         2
c   Sink nodes:           6
c   Number of arcs:       101
c   Minimum arc cost:     10
c   Maximum arc cost:     99
c   Total supply:         1000
c   Transshipment -
c     Sources:            0
c     Sinks:              0
c   Skeleton arcs -
c     With max cost:      0
c     Capacitated:        100
c   Minimum arc capacity: 100
c   Maximum arc capacity: 1000
c
c  *** Minimum cost flow ***
c
p min 16 101
n 1 524
n 2 476
n 11 -185
n 12 -151
n 13 -59
n 14 -421
n 15 -87
n 16 -97
a 1 10 0 524 66
a 1 6 0 494 87
a 1 5 0 928 88
a 1 13 0 626 42
a 1 8 0 981 59
a 1 15 0 714 87
a 1 4 0 468 58
a 5 15 0 524 78
a 5 4 0 441 25
a 5 6 0 112 31
a 5 10 0 200 90
a 5 3 0 809 67
a 6 14 0 524 63
a 6 12 0 524 83
a 6 9 0 524 84
a 6 13 0 655 40
a 6 10 0 134 78
a 6 3 0 116 78
a 6 11 0 661 69
a 6 15 0 195 70
a 6 7 0 350 70
a 6 5 0 946 25
a 6 4 0 435 96
a 6 16 0 661 71
a 6 8 0 845 83
a 8 5 0 524 84
a 8 16 0 524 17
a 8 11 0 508 44
a 8 15 0 733 24
a 8 14 0 186 11
a 8 10 0 553 63
a 9 11 0 524 87
a 9 8 0 524 57
a 9 16 0 646 25
a 9 4 0 127 93
a 9 10 0 984 35
a 9 15 0 955 29
a 9 12 0 568 25
a 9 13 0 843 46
a 9 7 0 695 91
a 9 3 0 432 48
a 9 6 0 568 18
a 9 14 0 363 13
a 9 5 0 459 80
a 10 6 0 524 71
a 10 13 0 524 50
a 10 15 0 104 37
a 10 9 0 808 48
a 10 4 0 847 38
a 10 8 0 311 10
a 10 14 0 603 90
a 10 3 0 771 17
a 10 7 0 114 94
a 2 7 0 476 37
a 2 12 0 964 91
a 2 14 0 946 66
a 2 10 0 457 97
a 2 4 0 980 45
a 2 3 0 401 54
a 2 11 0 959 49
a 2 6 0 138 74
a 2 15 0 326 94
a 2 8 0 861 80
a 2 13 0 316 68
a 2 5 0 699 47
a 2 9 0 638 28
a 3 12 0 476 43
a 3 11 0 476 56
a 3 10 0 577 74
a 3 13 0 351 48
a 3 7 0 939 14
a 3 14 0 784 84
a 3 16 0 120 71
a 3 5 0 428 61
a 3 9 0 690 87
a 3 8 0 260 67
a 3 6 0 369 83
a 3 4 0 776 43
a 3 15 0 549 60
a 4 3 0 476 72
a 4 10 0 964 70
a 4 15 0 673 26
a 4 14 0 932 10
a 4 7 0 519 11
a 4 12 0 770 91
a 4 5 0 104 28
a 4 13 0 685 81
a 4 8 0 794 74
a 4 16 0 679 16
a 4 9 0 167 22
a 4 6 0 679 91
a 4 11 0 703 91
a 7 4 0 476 64
a 7 16 0 476 75
a 7 14 0 476 75
a 7 10 0 170 46
a 7 5 0 390 46
a 7 3 0 610 25
a 7 15 0 751 58
a 7 8 0 161 23
a 7 13 0 792 88
